199 300 151 112 196 155 115 122 115 136 114 180 134 152 181 148 136 133 156 172 176 146 125 169 189 160 142 171 101 177 159 146 106 176 124 101 131 105 191 112 107 104 158 142 156 138 190 158 138 145 196 180 158 188 114 112 147 122 184 148 165 108 161 171 150 185 173 147 191 163 160 198 167 184 139 189 189 196 112 193 106 108 172 164 196 152 177 108 174 126 122 138 100 183 175 150 134 147 198 124 176 123 188 108 106 194 197 161 189 109 153 161 184 191 192 179 142 134 153 182 160 175 186 160 124 161 176 158 174 173 182 150 162 135 158 135 128 121 196 183 130 149 110 180 105 101 124 114 135 177 196 161 117 148 187 141 175 162 199 148 101 146 198 163 182 122 198 176 143 160 125 139 175 135 118 180 136 142 194 137 185 156 198 101 170 150 143 144 111 107 158 179 154 156 142 101 144 105 177 187 165 